 P
 1.0000000000000000
     3.3136000000000001    0.0000000000000000    0.0000000000000000
     0.0000000000000000   10.4999999999999893    0.0000000000000000
     0.0000000000000000    0.0000000000000000    4.3762999999999996
   8
Cartesian
  1.6568000000000001  1.0654030400000001  0.3525547300000000
  1.6568000000000001 -1.0654030400000001  4.0237452700000000
  0.0000000000000000  1.0654030400000001  1.8355952700000000
  0.0000000000000000 -1.0654030400000001  2.5407047299999999
  0.0000000000000000  6.3154030399999996  0.3525547300000000
  0.0000000000000000  4.1845969600000004  4.0237452700000000
  1.6568000000000001  6.3154030399999996  1.8355952700000000
  1.6568000000000001  4.1845969600000004  2.5407047299999999
