 C 
 1.0000000000000000
     9.1075619999999997    0.0000000000000000    0.0000000000000000
     0.0000000000000000    9.1075619999999997    0.0000000000000000
     0.0000000000000000    0.0000000000000000    9.1075619999999997
 125
Cartesian
  8.3593484599999996  3.1068261900000000  2.9837921399999998
  5.9158260000000000  0.8933334300000000  3.6723511499999999
  5.9666917399999999  4.3399992000000003  0.2889738300000000
  6.7561352100000001  8.6364915700000005  1.5329301900000001
  5.8446321899999996  6.0150893200000004  0.8133599300000000
  8.6392511600000006  0.9639899000000000  5.5914875100000003
  5.3479330799999998  6.6346585500000002  2.0747754800000000
  2.6521311600000002  1.9790459000000000  3.7775890300000001
  6.4150296899999999  0.5081473100000000  4.9139941800000004
  4.1843054200000003  0.1308119100000000  0.5306065599999999
  1.2050124200000001  7.5225274500000001  7.8561192300000000
  2.3866184100000001  0.0014298900000000  4.8437020200000003
  6.8650889800000003  6.6088294999999997  0.3124986700000000
  3.1925738899999998  2.9731727200000000  0.4934112800000000
  7.7070466499999997  3.9491299600000001  0.5970644400000000
  8.0749557299999992  8.0700831799999992  3.7446378700000000
  2.2460249700000001  1.2853502299999999  5.2317843499999999
  6.5234278999999997  7.7550708300000002  6.7520094899999998
  2.1189653700000002  8.0224961700000001  5.8111254700000003
  3.3038318699999998  7.5118169500000000  3.3656175699999999
  6.9035046700000002  5.3181604599999996  6.4605948299999998
  6.0435504499999997  5.3965401399999999  3.9445397500000001
  6.0788786899999998  0.0079509000000000  6.2446545300000000
  3.8941293899999998  4.1972836999999998  0.8500543000000000
  9.0567235900000007  7.4302040900000001  8.4974464199999993
  5.1915926700000004  3.4239514999999998  1.1892472300000001
  7.2639637600000002  2.2949598999999998  7.5479102200000003
  8.9189443900000001  8.7514381100000005  6.2565581100000003
  0.1652931400000000  0.8075584099999999  2.4247973100000002
  6.9473120499999999  0.7612828900000000  2.3070820699999999
  1.7767669500000001  5.6314241699999998  8.3261331799999994
  3.8607228500000002  8.5463540299999998  4.1928392099999998
  3.5153641000000002  8.0435437499999995  6.3907307199999996
  5.4710126800000003  7.0236152000000001  7.6284119600000002
  8.4101686499999992  2.1493846300000001  6.7010800000000001
  6.2790446800000002  6.6675095300000002  4.5418409899999999
  0.2534998800000000  5.2783422000000000  6.1212379600000002
  1.3370720700000001  8.7295070999999993  2.3744507000000001
  5.0936863800000003  0.8893534300000000  7.4854141299999997
  8.9752200200000001  3.0199127300000002  5.7725002999999999
  7.6362444700000003  7.4984197300000002  1.2724812400000001
  7.6729752600000003  1.2791935100000000  4.6089819299999997
  6.3287446500000000  8.7849539399999994  0.1803115100000000
  1.5106439899999999  4.5240539200000001  8.8099359800000006
  4.9817362300000001  0.0275594800000000  3.0861429199999999
  2.1162057800000000  7.6474194500000001  0.0845455000000000
  0.4906881200000000  2.2240302100000000  2.5078309499999998
  8.0401557300000004  0.5614538700000000  3.2739681699999998
  1.5710726600000000  7.6527200500000001  3.2422010000000001
  3.1222635099999998  1.7559561699999999  2.3640862999999999
  5.9660906400000000  2.4932770700000000  3.5904468399999998
  1.1181991400000000  3.2056523499999998  1.6475579700000000
  1.0959220400000000  5.4352745999999996  2.1327724400000001
  7.2135989399999998  6.6891308799999996  5.6839383699999999
  3.1653513900000001  4.5632346500000001  3.2671648200000001
  7.2582533199999997  2.5496984100000000  3.9393302200000000
  6.6648501199999997  4.1336582699999997  5.6283731299999999
  5.8840315099999998  5.6138192499999997  7.5044216099999996
  1.0299924000000000  6.2992179300000002  7.4380274899999996
  3.7942831899999998  3.7056210699999999  6.1188244500000000
  5.9216184099999998  8.0326237799999998  2.5353995399999998
  2.6792534799999999  3.6737810400000002  8.3787111400000001
  5.8509710600000000  7.4775634100000001  9.0144462900000004
  5.9230847300000002  3.4638699499999999  2.3161349800000002
  8.5069547199999995  6.7299509700000000  5.2032230300000002
  4.0116806900000004  0.7549349200000000  2.3525834500000000
  1.6466107800000001  0.9583614300000000  7.3455037599999997
  4.8473359399999998  2.9644385700000000  6.1266842800000001
  3.4434507900000000  8.2116329100000005  8.8684065299999997
  8.2375439200000002  5.1623756199999997  7.1638534399999996
  2.4219830700000000  3.3618652500000001  6.7745689200000001
  0.1112761900000000  5.5842743199999996  4.7795756799999998
  9.0627527899999993  0.7643794600000000  1.1783090500000000
  9.1029991100000007  7.6838132600000000  0.8799088900000001
  5.5418786200000003  4.5229428000000000  8.0605384600000001
  3.6843822400000001  3.2289768200000002  3.8414603600000001
  8.2335274900000002  6.2367218400000004  8.3942031000000004
  3.6144452700000000  5.2481233100000004  2.0148750500000001
  4.2116372200000001  1.6029035899999999  6.7838404199999998
  4.1701158400000002  4.8149494500000003  5.3724324299999999
  7.3264598500000000  3.3719382200000001  1.9119049500000000
  7.3304762900000000  5.5303393400000003  3.3054256899999999
  7.7366280100000004  6.4759683900000002  2.4225841699999999
  8.5015903599999998  5.2815844900000002  0.2630537100000000
  0.7929681000000000  1.6601081900000001  5.1872392600000001
  7.9364752500000000  2.4946067699999999  8.8232330200000000
  6.5041471900000003  1.0278248000000001  7.4617253600000000
  5.1859550900000002  0.8486153000000000  0.0160748500000000
  3.8080356100000001  6.6811890800000002  7.1270224600000001
  1.3623364499999999  1.0640729000000000  0.6784587200000000
  4.3511195300000001  6.1455004999999998  6.0389147100000002
  1.2580002200000000  8.3542755500000005  0.9968408800000000
  2.7103558099999998  1.9718509300000000  6.4986280000000001
  1.2125990200000001  4.0272546299999998  6.0777038100000000
  3.3829948000000001  5.9032575700000001  8.3532919299999993
  1.1168876500000000  1.5898615599999999  8.5446144900000007
  1.2200763299999999  2.2773367699999998  3.6560759400000000
  0.4151864300000000  3.9089200700000002  0.4674729400000000
  1.2860241800000001  8.2577809299999991  4.6242279899999996
  7.9439980900000000  3.5170398899999999  4.7957324899999998
  5.2185237400000002  6.9473393699999999  5.3634432600000004
  6.6533472700000003  8.0010478599999999  4.0180377700000003
  2.1150582299999998  4.3085143600000002  2.1353407700000000
  0.2290005400000000  2.8770059799999999  8.2490832100000002
  9.0615323799999992  8.0620412100000003  4.9788126999999998
  1.6937970600000001  5.6524626299999996  4.3635968900000002
  8.3496033700000005  4.7889473599999999  4.0177554400000002
  9.0746199500000007  6.0276395400000000  1.5483857200000000
  5.4873789700000000  2.0275892099999999  0.8126677600000000
  5.4757577199999998  4.3845260699999997  4.8181279899999998
  7.9839985100000002  1.2560785200000000  0.4957883500000000
  1.2853411200000000  6.3303658000000000  3.1544405300000000
  3.7668056800000000  6.9056540599999998  1.9659583300000001
  6.0125483099999997  3.3977945900000002  7.0435061200000000
  4.9099595300000001  2.9157677600000000  4.6108307699999997
  4.6908315900000002  8.1701752899999995  5.4494186500000001
  5.0102702199999998  5.5903854900000001  2.9697664900000000
  3.2806895500000000  6.8805080800000002  0.3770986000000000
  2.2962076400000000  2.1948677999999999  1.2978640200000000
  7.8640428099999999  8.1966145400000006  7.5079553499999996
  7.2888365100000003  0.2439278300000000  8.4493129600000003
  3.0004771899999998  5.4296734500000001  4.5743094400000004
  6.9393975799999996  1.9138357600000000  1.3869632900000000
  1.0966324300000001  8.8052638000000005  6.8976849400000004
  3.9060603000000000  4.5720963100000001  8.5060075299999998
