 C 
 1.0000000000000000
    50.0000000000000000    0.0000000000000000    0.0000000000000000
     0.0000000000000000   50.0000000000000000    0.0000000000000000
     0.0000000000000000    0.0000000000000000   50.0000000000000000
  12
Cartesian
  7.2876599999999998  6.3238399999999997 11.0807099999999998
  8.1700999999999997  7.1981999999999999 11.8343100000000003
  7.8231200000000003  5.4037899999999999 10.1717399999999998
  9.5557499999999997  7.1194699999999997 11.6518099999999993
  7.5251299999999999  8.4940700000000007 11.9496900000000004
  6.0428100000000002  5.9324800000000000  8.5444899999999997
  5.4878099999999996  6.8867099999999999  9.4879899999999999
  7.1913000000000000  5.2071600000000000  8.8793600000000001
  6.0968299999999997  7.0785299999999998 10.7339500000000001
  6.2454499999999999  8.4212799999999994 11.2683099999999996
 10.1109600000000004  6.1649000000000003 10.7085500000000007
  9.2614000000000001  5.3190999999999997  9.9845500000000005
