 C 
 1.0000000000000000
   120.0000000000000000     0.0000000000000000     0.0000000000000000
     0.0000000000000000   120.0000000000000000     0.0000000000000000
     0.0000000000000000     0.0000000000000000   120.0000000000000000
   3
Cartesian
  0.0000000000000000  0.0000000000000000  0.0000000000000000
  0.7000000000000000  0.0000000000000000  0.0000000000000000
  1.3999999999999999  0.0000000000000000  0.0000000000000000
