 C 
 1.0000000000000000
    36.0000000000000000    0.0000000000000000    0.0000000000000000
     0.0000000000000000   18.0000000000000000    0.0000000000000000
     0.0000000000000000    0.0000000000000000   18.0000000000000000
 120
Cartesian
  7.2876599999999998  6.3238399999999997 11.0807099999999998
  8.1700999999999997  7.1981999999999999 11.8343100000000003
  7.8231200000000003  5.4037899999999999 10.1717399999999998
  9.5557499999999997  7.1194699999999997 11.6518099999999993
 10.3474699999999995  8.3344600000000000 11.5785400000000003
  7.5251299999999999  8.4940700000000007 11.9496900000000004
  8.2881499999999999  9.6652799999999992 11.8802099999999999
  9.7251899999999996  9.5829400000000007 11.6907399999999999
  6.0428100000000002  5.9324800000000000  8.5444899999999997
  5.4878099999999996  6.8867099999999999  9.4879899999999999
  7.1913000000000000  5.2071600000000000  8.8793600000000001
  6.0968299999999997  7.0785299999999998 10.7339500000000001
  6.2454499999999999  8.4212799999999994 11.2683099999999996
  5.0000000000000000  8.0279600000000002  8.7341200000000008
  5.1434100000000003  9.3204600000000006  9.2509200000000007
  5.7747200000000003  9.5223099999999992 10.5432799999999993
  8.0969899999999999  5.5290999999999997  6.6044999999999998
  6.9069599999999998  6.2867800000000003  6.2586199999999996
  8.2366100000000007  5.0000000000000000  7.8935599999999999
  5.8972899999999999  6.4823100000000000  7.2081900000000001
  5.2501400000000000  7.7786099999999996  7.3252800000000002
  7.3075000000000001  7.3808100000000003  5.3901800000000000
  6.6853899999999999  8.6293299999999995  5.5023200000000001
  5.6371099999999998  8.8326300000000000  6.4881399999999996
 10.6114400000000000  5.6741700000000002  7.9455799999999996
 10.4680300000000006  6.2240700000000002  6.6085099999999999
  9.5158100000000001  5.0707199999999997  8.5758700000000001
  9.2321200000000001  6.1558400000000004  5.9534000000000002
  8.7445199999999996  7.2984799999999996  5.2007500000000002
 11.2580399999999994  7.4413999999999998  6.5375399999999999
 10.7874300000000005  8.5424399999999991  5.8125499999999999
  9.5077200000000008  8.4696400000000001  5.1312400000000000
 10.1109600000000004  6.1649000000000003 10.7085500000000007
 11.2492199999999993  6.7897200000000000 10.0565200000000008
  9.2614000000000001  5.3190999999999997  9.9845500000000005
 11.4908599999999996  6.5510500000000000  8.6983499999999996
 11.8892799999999994  7.6432500000000001  7.8299399999999997
 11.3957400000000000  8.1310800000000008 10.5927299999999995
 11.7826900000000006  9.1851599999999998  9.7557399999999994
 12.0327900000000003  8.9357100000000003  8.3468999999999998
  9.7453299999999992 10.6399000000000008  6.0002700000000004
 10.9361999999999995  9.8851899999999997  6.3470199999999997
 11.5450199999999992 10.0769900000000003  7.5930400000000002
  9.2097400000000000 11.5598200000000002  6.9092500000000001
  6.9218900000000003 10.7988599999999995  6.3721699999999997
  7.4771900000000002  9.8443400000000008  5.4289699999999996
  8.8628499999999999  9.7655999999999992  5.2465900000000003
  7.7714499999999997 11.6445600000000002  7.0962699999999996
  6.4211200000000002 11.2896000000000001  9.1351399999999998
  5.5417300000000003 10.4126799999999999  8.3823500000000006
  5.7835999999999999 10.1740499999999994  7.0241600000000002
  7.5168299999999997 11.8928899999999995  8.5048999999999992
  8.9355799999999999 11.4346700000000006 10.4764499999999998
  7.8004600000000002 10.8079499999999999 11.1275499999999994
  6.5645800000000003 10.7397399999999994 10.4722700000000000
  8.7959300000000002 11.9635999999999996  9.1873500000000003
 10.9899100000000001 11.0312300000000008  8.5365800000000007
 11.1354699999999998 10.4814799999999995  9.8728999999999996
 10.1256599999999999 10.6770499999999995 10.8223699999999994
  9.8413500000000003 11.7564299999999999  8.2017000000000007
 17.6876600000000010  6.3238399999999997 11.0807099999999998
 18.5701000000000001  7.1981999999999999 11.8343100000000003
 18.2231200000000015  5.4037899999999999 10.1717399999999998
 19.9557499999999983  7.1194699999999997 11.6518099999999993
 20.7474699999999999  8.3344600000000000 11.5785400000000003
 17.9251299999999993  8.4940700000000007 11.9496900000000004
 18.6881500000000003  9.6652799999999992 11.8802099999999999
 20.1251899999999999  9.5829400000000007 11.6907399999999999
 16.4428100000000015  5.9324800000000000  8.5444899999999997
 15.8878100000000000  6.8867099999999999  9.4879899999999999
 17.5913000000000004  5.2071600000000000  8.8793600000000001
 16.4968299999999992  7.0785299999999998 10.7339500000000001
 16.6454500000000003  8.4212799999999994 11.2683099999999996
 15.4000000000000004  8.0279600000000002  8.7341200000000008
 15.5434099999999997  9.3204600000000006  9.2509200000000007
 16.1747200000000007  9.5223099999999992 10.5432799999999993
 18.4969900000000003  5.5290999999999997  6.6044999999999998
 17.3069600000000001  6.2867800000000003  6.2586199999999996
 18.6366100000000010  5.0000000000000000  7.8935599999999999
 16.2972900000000003  6.4823100000000000  7.2081900000000001
 15.6501400000000004  7.7786099999999996  7.3252800000000002
 17.7074999999999996  7.3808100000000003  5.3901800000000000
 17.0853900000000003  8.6293299999999995  5.5023200000000001
 16.0371099999999984  8.8326300000000000  6.4881399999999996
 21.0114400000000003  5.6741700000000002  7.9455799999999996
 20.8680300000000010  6.2240700000000002  6.6085099999999999
 19.9158100000000005  5.0707199999999997  8.5758700000000001
 19.6321200000000005  6.1558400000000004  5.9534000000000002
 19.1445200000000000  7.2984799999999996  5.2007500000000002
 21.6580399999999997  7.4413999999999998  6.5375399999999999
 21.1874299999999991  8.5424399999999991  5.8125499999999999
 19.9077200000000012  8.4696400000000001  5.1312400000000000
 20.5109600000000007  6.1649000000000003 10.7085500000000007
 21.6492199999999997  6.7897200000000000 10.0565200000000008
 19.6614000000000004  5.3190999999999997  9.9845500000000005
 21.8908600000000000  6.5510500000000000  8.6983499999999996
 22.2892800000000015  7.6432500000000001  7.8299399999999997
 21.7957399999999986  8.1310800000000008 10.5927299999999995
 22.1826900000000009  9.1851599999999998  9.7557399999999994
 22.4327900000000007  8.9357100000000003  8.3468999999999998
 20.1453300000000013 10.6399000000000008  6.0002700000000004
 21.3362000000000016  9.8851899999999997  6.3470199999999997
 21.9450199999999995 10.0769900000000003  7.5930400000000002
 19.6097399999999986 11.5598200000000002  6.9092500000000001
 17.3218899999999998 10.7988599999999995  6.3721699999999997
 17.8771899999999988  9.8443400000000008  5.4289699999999996
 19.2628500000000003  9.7655999999999992  5.2465900000000003
 18.1714500000000001 11.6445600000000002  7.0962699999999996
 16.8211200000000005 11.2896000000000001  9.1351399999999998
 15.9417299999999997 10.4126799999999999  8.3823500000000006
 16.1835999999999984 10.1740499999999994  7.0241600000000002
 17.9168300000000009 11.8928899999999995  8.5048999999999992
 19.3355800000000002 11.4346700000000006 10.4764499999999998
 18.2004599999999996 10.8079499999999999 11.1275499999999994
 16.9645800000000015 10.7397399999999994 10.4722700000000000
 19.1959300000000006 11.9635999999999996  9.1873500000000003
 21.3899100000000004 11.0312300000000008  8.5365800000000007
 21.5354700000000001 10.4814799999999995  9.8728999999999996
 20.5256599999999985 10.6770499999999995 10.8223699999999994
 20.2413500000000006 11.7564299999999999  8.2017000000000007
